SPARKNaCl/why3-z3/sparknacl-core.adb_311_41_range_check2_1.smt2
;; produced by z3_gnatprove.drv ;;
(set-info :smt-lib-version 2.5)
(set-info :source |VC generated by SPARK 2014|)
(set-info :category industrial)
(set-info :status unknown)
;;; generated by SMT-LIB2 driver
;;; SMT-LIB2 driver: bit-vectors, common part
;;; SMT-LIB2: integer arithmetic
(declare-datatypes ()
  ((int__ref (int__refqtmk (int__content Int)))))

(declare-sort byte 0)

;; "to_rep"
(declare-fun to_rep (byte) (_ BitVec 8))

;; "of_rep"
(declare-fun of_rep ((_ BitVec 8)) byte)

;; "inversion_axiom"
(assert
  (forall ((x byte)) (! (= (of_rep (to_rep x)) x) :pattern ((to_rep x)) )))

;; "range_axiom"
(assert true)

;; "coerce_axiom"
(assert
  (forall ((x (_ BitVec 8)))
    (! (= (to_rep (of_rep x)) x) :pattern ((to_rep (of_rep x))) )))

(declare-sort map1 0)

;; "has_bounds"
(declare-fun has_bounds (map1
  Int
  Int) Bool)

(declare-datatypes ()
  ((us_split_fields
   (us_split_fieldsqtmk (rec__ada___sparknacl__core__salsa20_key__f map1)))))

(declare-datatypes ()
  ((us_rep (us_repqtmk (us_split_fields1 us_split_fields)))))

;; "dynamic_invariant"
(define-fun dynamic_invariant ((temp___expr_300 us_rep) (temp___is_init_296 Bool) (temp___skip_constant_297 Bool) (temp___do_toplevel_298 Bool) (temp___do_typ_inv_299 Bool)) Bool
  (has_bounds
    (rec__ada___sparknacl__core__salsa20_key__f
      (us_split_fields1 temp___expr_300))
    0
    31))

(declare-const input map1)

(declare-const k us_rep)

(declare-const c map1)

(declare-sort u32 0)

;; "to_rep"
(declare-fun to_rep1 (u32) (_ BitVec 32))

;; "of_rep"
(declare-fun of_rep1 ((_ BitVec 32)) u32)

;; "inversion_axiom"
(assert
  (forall ((x u32)) (! (= (of_rep1 (to_rep1 x)) x) :pattern ((to_rep1 x)) )))

;; "range_axiom"
(assert true)

;; "coerce_axiom"
(assert
  (forall ((x (_ BitVec 32)))
    (! (= (to_rep1 (of_rep1 x)) x) :pattern ((to_rep1 (of_rep1 x))) )))

(declare-sort map2 0)

(declare-datatypes ()
  ((map__ref (map__refqtmk (map__content map2)))))

;; "has_bounds"
(declare-fun has_bounds1 (map2
  Int
  Int) Bool)

;; "get"
(declare-fun get (map2
  Int) u32)

;; "set"
(declare-fun set (map2
  Int
  u32) map2)

;; "set_eq"
(assert
  (forall ((a map2) (i Int) (v u32))
    (! (= (get (set a i v) i) v) :pattern ((set a i v)) )))

;; "set_neq"
(assert
  (forall ((a map2) (i Int) (v u32))
    (! (forall ((j Int))
         (! (=> (not (= i j)) (= (get (set a i v) j) (get a j))) :pattern (
         (get
           a
           j)) :pattern ((get (set a i v) j)) )) :pattern ((set a i v)) )))

;; "set_has_bounds"
(assert
  (forall ((a map2) (i Int) (f Int) (l Int) (v u32))
    (! (=>
         (and (<= f i) (<= i l))
         (=> (has_bounds1 a f l) (has_bounds1 (set a i v) f l))) :pattern (
    (has_bounds1
      (set a i v)
      f
      l)) )))

(declare-sort tinteger_32B 0)

;; "tinteger_32B'int"
(declare-fun tinteger_32Bqtint (tinteger_32B) Int)

;; "tinteger_32B'axiom"
(assert
  (forall ((i tinteger_32B))
    (and
      (<= (- 2147483648) (tinteger_32Bqtint i))
      (<= (tinteger_32Bqtint i) 2147483647))))

;; "in_range"
(define-fun in_range ((x Int)) Bool
  (and (<= (- 2147483648) x) (<= x 2147483647)))

;; "to_rep"
(define-fun to_rep2 ((x tinteger_32B)) Int
  (tinteger_32Bqtint x))

;; "of_rep"
(declare-fun of_rep2 (Int) tinteger_32B)

;; "inversion_axiom"
(assert
  (forall ((x tinteger_32B))
    (! (= (of_rep2 (to_rep2 x)) x) :pattern ((to_rep2 x)) )))

;; "range_axiom"
(assert
  (forall ((x tinteger_32B))
    (! (in_range (to_rep2 x)) :pattern ((to_rep2 x)) )))

;; "coerce_axiom"
(assert
  (forall ((x Int))
    (! (=> (in_range x) (= (to_rep2 (of_rep2 x)) x)) :pattern ((to_rep2
                                                                 (of_rep2 x))) )))

(declare-const output map1)

(declare-const x map2)

(declare-const y map2)

;; "y'unused"
(define-fun yqtunused () map__ref
  (map__refqtmk y))

;; "x'unused"
(define-fun xqtunused () map__ref
  (map__refqtmk x))

;; "Assume"
(assert (has_bounds output 0 31))

;; "Assume"
(assert (has_bounds input 0 15))

;; "Assume"
(assert (dynamic_invariant k true false true true))

;; "Assume"
(assert (has_bounds c 0 15))

;; "Assume"
(assert true)

;; "Assume"
(assert (has_bounds1 x 0 15))

;; "Assume"
(assert true)

;; "Assume"
(assert (has_bounds1 y 0 15))

;; "map__content'result'unused"
(define-fun map__contentqtresultqtunused () map2
  x)

;; "map__content'result'unused"
(define-fun map__contentqtresultqtunused1 () map2
  y)

(declare-const x1 map2)

(declare-const y1 map2)

;; "y'unused"
(define-fun yqtunused1 () map__ref
  (map__refqtmk y1))

;; "x'unused"
(define-fun xqtunused1 () map__ref
  (map__refqtmk x1))

;; "H"
(assert (has_bounds1 x1 0 15))

;; "H"
(assert (has_bounds1 y1 0 15))

;; "H"
(assert true)

;; "H"
(assert true)

(declare-const x2 map2)

;; "x'unused"
(define-fun xqtunused2 () map__ref
  (map__refqtmk x2))

(declare-const i Int)

(declare-const iqtunused int__ref)

;; "H"
(assert (= iqtunused (int__refqtmk i)))

;; "H"
(assert (= i 0))

(declare-const int__contentqtresultqtunused Int)

;; "H"
(assert (= int__contentqtresultqtunused i))

(declare-const o Bool)

;; "H"
(assert (= o (ite (<= i 15) true false)))

(declare-const infix_lseqqtresultqtunused Bool)

;; "H"
(assert (= infix_lseqqtresultqtunused o))

(declare-const int__contentqtresultqtunused1 Int)

;; "H"
(assert (= int__contentqtresultqtunused1 i))

(declare-const o1 Bool)

;; "H"
(assert (= o1 (ite (<= 0 i) true false)))

(declare-const infix_lseqqtresultqtunused1 Bool)

;; "H"
(assert (= infix_lseqqtresultqtunused1 o1))

(declare-const o2 Bool)

;; "H"
(assert (= o2 (and o1 o)))

(declare-const andbqtresultqtunused Bool)

;; "H"
(assert (= andbqtresultqtunused o2))

(declare-const temp___loop_entry_828qtunused map2)

(declare-const map__contentqtresultqtunused2 map2)

(declare-const x3 map2)

(declare-const i1 Int)

(declare-const iqtunused1 int__ref)

(declare-const xqtunused3 map__ref)

(declare-const int__contentqtresultqtunused2 Int)

(declare-const map__contentqtresultqtunused3 map2)

(declare-const o3 u32)

(declare-const getqtresultqtunused u32)

(declare-const o4 (_ BitVec 32))

(declare-const to_repqtresultqtunused (_ BitVec 32))

(declare-const int__contentqtresultqtunused3 Int)

(declare-const map__contentqtresultqtunused4 map2)

(declare-const o5 u32)

(declare-const getqtresultqtunused1 u32)

(declare-const o6 (_ BitVec 32))

(declare-const to_repqtresultqtunused1 (_ BitVec 32))

(declare-const o7 (_ BitVec 32))

(declare-const addqtresultqtunused (_ BitVec 32))

(declare-const o8 u32)

(declare-const of_repqtresultqtunused u32)

(declare-const int__contentqtresultqtunused4 Int)

(declare-const map__contentqtresultqtunused5 map2)

(declare-const o9 map2)

(declare-const setqtresultqtunused map2)

(declare-const int__contentqtresultqtunused5 Int)

(declare-const infix_eqqtresultqtunused Bool)

;; "H"
(assert
  (ite (= o2 true)
    (and
      (= temp___loop_entry_828qtunused x1)
      (and
        (= map__contentqtresultqtunused2 x1)
        (and
          (= iqtunused1 (int__refqtmk i1))
          (and
            (= xqtunused3 (map__refqtmk x3))
            (and
              (= (and (ite (and
                             (has_bounds1 x3 0 15)
                             (forall ((temp___829 Int))
                               (=>
                                 (and (<= 0 temp___829) (<= temp___829 15))
                                 (=>
                                   (or
                                     (< 15 temp___829)
                                     (or (< temp___829 0) (<= i1 temp___829)))
                                   (= (get x3 temp___829) (get x1 temp___829))))))
                        true
                        false) (ite (and (<= 0 i1) (<= i1 15)) true false)) true)
              (and
                (= int__contentqtresultqtunused2 i1)
                (and
                  (= map__contentqtresultqtunused3 y1)
                  (and
                    (= o3 (get y1 i1))
                    (and
                      (= getqtresultqtunused o3)
                      (and
                        (= (to_rep1 o3) o4)
                        (and
                          (= to_repqtresultqtunused o4)
                          (and
                            (= int__contentqtresultqtunused3 i1)
                            (and
                              (= map__contentqtresultqtunused4 x3)
                              (and
                                (= o5 (get x3 i1))
                                (and
                                  (= getqtresultqtunused1 o5)
                                  (and
                                    (= (to_rep1 o5) o6)
                                    (and
                                      (= to_repqtresultqtunused1 o6)
                                      (and
                                        (= o7 (bvadd o6 o4))
                                        (and
                                          (= addqtresultqtunused o7)
                                          (and
                                            (= (to_rep1 o8) o7)
                                            (and
                                              (= of_repqtresultqtunused 
                                              o8)
                                              (and
                                                (= int__contentqtresultqtunused4 
                                                i1)
                                                (and
                                                  (= map__contentqtresultqtunused5 
                                                  x3)
                                                  (and
                                                    (= o9 (set x3 i1 o8))
                                                    (and
                                                      (= setqtresultqtunused 
                                                      o9)
                                                      (and
                                                        (= x2 o9)
                                                        (and
                                                          (= int__contentqtresultqtunused5 
                                                          i1)
                                                          (and
                                                            (= infix_eqqtresultqtunused 
                                                            (ite (= i1 15)
                                                              true
                                                              false))
                                                            (= i1 15)))))))))))))))))))))))))))))
    (= x2 x1)))

(declare-const i2 Int)

;; "i'unused"
(define-fun iqtunused2 () int__ref
  (int__refqtmk i2))

;; "H"
(assert (= i2 0))

;; "int__content'result'unused"
(define-fun int__contentqtresultqtunused6 () Int
  i2)

;; "o"
(define-fun o10 () Bool
  (ite (<= i2 3) true false))

;; "infix <='result'unused"
(define-fun infix_lseqqtresultqtunused2 () Bool
  o10)

;; "int__content'result'unused"
(define-fun int__contentqtresultqtunused7 () Int
  i2)

;; "o"
(define-fun o11 () Bool
  (ite (<= 0 i2) true false))

;; "infix <='result'unused"
(define-fun infix_lseqqtresultqtunused3 () Bool
  o11)

;; "o"
(define-fun o12 () Bool
  (and o11 o10))

;; "andb'result'unused"
(define-fun andbqtresultqtunused1 () Bool
  o12)

;; "H"
(assert (= o12 true))

;; "temp___loop_entry_843'unused"
(define-fun temp___loop_entry_843qtunused () map2
  x2)

;; "map__content'result'unused"
(define-fun map__contentqtresultqtunused6 () map2
  x2)

(declare-const x4 map2)

(declare-const i3 Int)

;; "i'unused"
(define-fun iqtunused3 () int__ref
  (int__refqtmk i3))

;; "x'unused"
(define-fun xqtunused4 () map__ref
  (map__refqtmk x4))

;; "Assume"
(assert
  (= (and (ite (has_bounds1 x4 0 15) true false) (ite (and
                                                        (<= 0 i3)
                                                        (<= i3 3))
                                                   true
                                                   false)) true))

;; "int__content'result'unused"
(define-fun int__contentqtresultqtunused8 () Int
  i3)

;; "o"
(define-fun o13 () Int
  (* 4 i3))

;; "infix *'result'unused"
(define-fun infix_asqtresultqtunused () Int
  o13)

;; "temp___834"
(define-fun temp___834 () Int
  (+ o13 3))

;; "infix +'result'unused"
(define-fun infix_plqtresultqtunused () Int
  temp___834)

;; "int__content'result'unused"
(define-fun int__contentqtresultqtunused9 () Int
  i3)

;; "temp___833"
(define-fun temp___833 () Int
  (* 4 i3))

;; "infix *'result'unused"
(define-fun infix_asqtresultqtunused1 () Int
  temp___833)

;; "H"
(assert (<= temp___833 temp___834))

;; Goal "def'vc"
;; File "sparknacl-core.ads", line 61, characters 0-0
(assert
  (not (<= temp___833 15)))

(check-sat)
